2536, 0, 0, 53, 0
2537, 0, 1, 73, 3
2538, 0, 2, 97, 4
2539, 0, 3, 56, 1
2540, 0, 4, 70, 2
2541, 1, 0, 61, 2
2542, 1, 1, 49, 3
2543, 1, 2, 75, 1
2544, 1, 3, 93, 4
2545, 1, 4, 98, 0
2546, 2, 0, 40, 0
2547, 2, 1, 34, 1
2548, 2, 2, 96, 4
2549, 2, 3, 87, 2
2550, 2, 4, 70, 3
2551, 3, 0, 51, 4
2552, 3, 1, 59, 0
2553, 3, 2, 44, 2
2554, 3, 3, 60, 3
2555, 3, 4, 64, 1
